s td 77 8 84
b 1 1 2 13
b 2 11 12 24
b 3 61 73 74
b 4 72 83 84
b 5 2 3 13 14
b 6 10 11 23 24
b 7 3 4 16 29 42 55 68 81
b 8 4 5 16 29 42 55 68 81
b 9 5 16 18 29 42 55 68 81
b 10 5 18 29 31 42 55 68 81
b 11 5 18 31 42 44 55 68 81
b 12 5 18 31 44 55 57 68 81
b 13 5 18 31 44 57 68 70 81
b 14 5 7 18 31 44 57 70 81
b 15 5 6 7 18
b 16 7 18 20 31 44 57 70 81
b 17 7 20 31 33 44 57 70 81
b 18 7 20 33 44 46 57 70 81
b 19 7 20 33 46 57 59 70 81
b 20 7 20 33 46 48 59 70 81
b 21 7 9 20 33 46 48 59
b 22 7 8 9 20
b 23 9 20 22 33 46 48 59
b 24 9 22 33 35 46 48 59
b 25 9 22 24 35 48
b 26 9 22 23 24 35
b 27 9 10 22 23 24
b 28 24 35 36 48
b 29 22 33 34 35 46
b 30 35 46 47 48 59
b 31 9 20 21 22 33
b 32 48 59 70 81 83
b 33 48 59 70 71 83
b 34 48 59 60 71 83
b 35 70 81 82 83
b 36 46 57 58 59 70
b 37 33 44 45 46 57
b 38 20 31 32 33 44
b 39 7 18 19 20 31
b 40 57 68 69 70 81
b 41 44 55 56 57 68
b 42 31 42 43 44 55
b 43 18 29 30 31 42
b 44 5 16 17 18 29
b 45 3 16 29 42 55 68 79 81
b 46 3 16 29 42 55 66 68 79
b 47 3 16 29 42 53 55 66 79
b 48 3 16 29 42 53 66 77 79
b 49 3 16 29 42 53 64 66 77
b 50 3 16 29 40 42 53 64 77
b 51 3 16 29 40 51 53 64 77
b 52 3 16 27 29 40 51 64 77
b 53 3 16 27 38 40 51 64 77
b 54 3 16 27 38 49 51 64 77
b 55 3 16 25 27 38 49
b 56 3 14 16 25 27 38
b 57 3 13 14 25
b 58 3 14 15 16 27
b 59 14 25 26 27 38
b 60 25 37 38 49
b 61 38 49 51 64 75 77
b 62 38 49 51 62 64 75
b 63 38 49 50 51 62
b 64 51 62 63 64 75
b 65 49 62 74 75
b 66 64 75 76 77
b 67 27 38 39 40 51
b 68 16 27 28 29 40
b 69 40 51 52 53 64
b 70 29 40 41 42 53
b 71 53 64 65 66 77
b 72 66 77 78 79
b 73 42 53 54 55 66
b 74 55 66 67 68 79
b 75 68 79 80 81
b 76 49 61 62 74
b 77 60 71 72 83
1 5
2 6
3 76
4 77
5 57
6 27
7 8
7 45
8 9
9 10
9 44
10 11
10 43
11 12
11 42
12 13
12 41
13 14
13 40
14 15
14 16
16 17
16 39
17 18
17 38
18 19
18 37
19 20
19 36
20 21
20 32
21 22
21 23
23 24
23 31
24 25
24 29
24 30
25 26
25 28
26 27
32 33
32 35
33 34
34 77
45 46
45 75
46 47
46 74
47 48
47 73
48 49
48 72
49 50
49 71
50 51
50 70
51 52
51 69
52 53
52 68
53 54
53 67
54 55
54 61
55 56
55 60
56 57
56 58
56 59
61 62
61 66
62 63
62 64
62 65
65 76
